(set-logic QF_BV)
(declare-fun _substvar_255_ () (_ BitVec 64))
(declare-fun _substvar_268_ () (_ BitVec 64))
(declare-fun _substvar_121_ () (_ BitVec 64))
(assert (= false (bvsle _substvar_121_ (_ bv0 64))))
(assert (= _substvar_255_ (bvsub (_ bv0 64) _substvar_121_)))
(assert (= (_ bv0 64) (bvudiv _substvar_255_ _substvar_268_)))
(check-sat)
(exit)
